(declare-fun temp1229_1 () (_ BitVec 64))
(declare-fun temp1229_2 () (_ BitVec 64))
(declare-fun temp1229_3 () (_ BitVec 64))
(declare-fun ARGNAME_w_hh_NAMEEND_DIMSIZE
             ()
             (Array (_ BitVec 64) (_ BitVec 64)))
(declare-fun temp1229_4 () (_ BitVec 64))
(declare-fun temp1229_5 () (_ BitVec 64))
(declare-fun temp1229_6 () (_ BitVec 64))
(declare-fun temp1229_7 () (_ BitVec 64))
(declare-fun temp1229_8 () (_ BitVec 64))
(declare-fun temp1229_9 () (_ BitVec 64))
(declare-fun temp1229_10 () (_ BitVec 64))
(declare-fun temp1229_11 () (_ BitVec 64))
(declare-fun temp1229_12 () (_ BitVec 64))
(declare-fun temp1229_13 () (_ BitVec 64))
(declare-fun temp1229_14 () (_ BitVec 64))
(declare-fun temp1229_15 () (_ BitVec 64))
(declare-fun temp1229_16 () (_ BitVec 64))
(declare-fun temp1229_17 () (_ BitVec 64))
(declare-fun temp1229_18 () (_ BitVec 64))
(declare-fun temp1229_19 () (_ BitVec 64))
(declare-fun temp1229_20 () (_ BitVec 64))
(declare-fun temp1229_21 () (_ BitVec 64))
(declare-fun temp1229_22 () (_ BitVec 64))
(declare-fun temp1229_23 () (_ BitVec 64))
(declare-fun temp1229_24 () (_ BitVec 64))
(declare-fun ARGNAME_input_NAMEEND_DIMSIZE
             ()
             (Array (_ BitVec 64) (_ BitVec 64)))
(declare-fun temp1229_25 () (_ BitVec 64))
(declare-fun temp1229_26 () (_ BitVec 64))
(declare-fun temp1229_27 () (_ BitVec 64))
(declare-fun temp1229_28 () (_ BitVec 64))
(declare-fun temp1229_29 () (_ BitVec 64))
(declare-fun temp1229_30 () (_ BitVec 64))
(declare-fun temp1229_31 () (_ BitVec 64))
(declare-fun temp1229_32 () (_ BitVec 64))
(declare-fun temp1229_33 () (_ BitVec 64))
(declare-fun temp1229_34 () (_ BitVec 64))
(declare-fun temp1229_35 () (_ BitVec 64))
(declare-fun temp1229_36 () (_ BitVec 64))
(declare-fun temp1229_37 () (_ BitVec 64))
(declare-fun temp1229_38 () (_ BitVec 64))
(declare-fun temp1229_39 () (_ BitVec 64))
(declare-fun temp1229_40 () (_ BitVec 64))
(declare-fun temp1229_41 () (_ BitVec 64))
(declare-fun temp1229_42 () (_ BitVec 64))
(declare-fun temp1229_43 () (_ BitVec 64))
(declare-fun temp1229_44 () (_ BitVec 64))
(declare-fun var404256 () (_ BitVec 64))
(declare-fun k!0 () (_ BitVec 64))
(declare-fun k!1 () (_ BitVec 64))
(declare-fun k!2 () Bool)
(declare-fun ARGNAME_w_hh_NAMEEND_DIM () (_ BitVec 64))
(declare-fun ARGNAME_input_NAMEEND_DIM () (_ BitVec 64))
(declare-fun temp1229_45 () (_ BitVec 64))
(declare-fun temp1229_46 () (_ BitVec 64))
(declare-fun ARGNAME_b_ih_NAMEEND_DIMSIZE
             ()
             (Array (_ BitVec 64) (_ BitVec 64)))
(declare-fun temp1229_47 () (_ BitVec 64))
(declare-fun temp1229_48 () (_ BitVec 64))
(declare-fun temp1229_49 () (_ BitVec 64))
(declare-fun temp1229_50 () (_ BitVec 64))
(declare-fun temp1229_51 () (_ BitVec 64))
(declare-fun temp1229_52 () (_ BitVec 64))
(declare-fun temp1229_53 () (_ BitVec 64))
(declare-fun temp1229_54 () (_ BitVec 64))
(declare-fun temp1229_55 () (_ BitVec 64))
(declare-fun temp1229_56 () (_ BitVec 64))
(declare-fun temp1229_57 () (_ BitVec 64))
(declare-fun temp1229_58 () (_ BitVec 64))
(declare-fun temp1229_59 () (_ BitVec 64))
(declare-fun temp1229_60 () (_ BitVec 64))
(declare-fun temp1229_61 () (_ BitVec 64))
(declare-fun temp1229_62 () (_ BitVec 64))
(declare-fun temp1229_63 () (_ BitVec 64))
(declare-fun temp1229_64 () (_ BitVec 64))
(declare-fun temp1229_65 () (_ BitVec 64))
(declare-fun ARGNAME_b_ih_NAMEEND_DIM () (_ BitVec 64))
(declare-fun temp1229_66 () (_ BitVec 64))
(declare-fun var65706 () (_ BitVec 64))
(declare-fun temp1229_67 () (_ BitVec 64))
(declare-fun temp1229_68 () (_ BitVec 64))
(declare-fun temp1229_69 () (_ BitVec 64))
(declare-fun temp1229_70 () (_ BitVec 64))
(declare-fun temp1229_71 () (_ BitVec 64))
(declare-fun temp1229_72 () (_ BitVec 64))
(declare-fun var68976 () (_ BitVec 64))
(declare-fun temp1229_73 () (_ BitVec 64))
(declare-fun temp1229_74 () (_ BitVec 64))
(declare-fun temp1229_75 () (_ BitVec 64))
(declare-fun temp1229_76 () (_ BitVec 64))
(declare-fun temp1229_77 () (_ BitVec 64))
(declare-fun temp1229_78 () (_ BitVec 64))
(declare-fun temp1229_79 () (_ BitVec 64))
(declare-fun temp1229_80 () (_ BitVec 64))
(declare-fun var2107376 () (_ BitVec 64))
(declare-fun temp1229_81 () (_ BitVec 64))
(declare-fun var2691454 () (_ BitVec 64))
(declare-fun var2691422 () (_ BitVec 64))
(declare-fun var2559997 () (_ BitVec 64))
(declare-fun var2559991 () (_ BitVec 64))
(declare-fun var2107424 () (_ BitVec 64))
(declare-fun temp1229_82 () (_ BitVec 64))
(declare-fun temp1229_83 () (_ BitVec 64))
(declare-fun temp1229_84 () (_ BitVec 64))
(declare-fun var2821961 () (_ BitVec 64))
(declare-fun temp1229_85 () (_ BitVec 64))
(declare-fun var3149889 () (_ BitVec 64))
(declare-fun temp1229_86 () (_ BitVec 64))
(declare-fun var3149890 () (_ BitVec 64))
(declare-fun temp1229_87 () (_ BitVec 64))
(declare-fun var3215435 () (_ BitVec 64))
(declare-fun temp1229_88 () (_ BitVec 64))
(declare-fun var3346507 () (_ BitVec 64))
(declare-fun temp1229_89 () (_ BitVec 64))
(declare-fun var3477579 () (_ BitVec 64))
(declare-fun temp1229_90 () (_ BitVec 64))
(declare-fun var3608651 () (_ BitVec 64))
(declare-fun temp1229_91 () (_ BitVec 64))
(declare-fun var3739465 () (_ BitVec 64))
(assert (= temp1229_1 #x0000000000000000))
(assert (= temp1229_2 temp1229_1))
(assert (= temp1229_3 (select ARGNAME_w_hh_NAMEEND_DIMSIZE temp1229_2)))
(assert (= temp1229_4 #x0000000000000001))
(assert (= temp1229_5 temp1229_4))
(assert (= temp1229_6 (select ARGNAME_w_hh_NAMEEND_DIMSIZE temp1229_5)))
(assert (= temp1229_7 #x0000000000000002))
(assert (= temp1229_8 temp1229_7))
(assert (= temp1229_9 (select ARGNAME_w_hh_NAMEEND_DIMSIZE temp1229_8)))
(assert (= temp1229_10 #x0000000000000003))
(assert (= temp1229_11 temp1229_10))
(assert (= temp1229_12 (select ARGNAME_w_hh_NAMEEND_DIMSIZE temp1229_11)))
(assert (= temp1229_13 #x0000000000000004))
(assert (= temp1229_14 temp1229_13))
(assert (= temp1229_15 (select ARGNAME_w_hh_NAMEEND_DIMSIZE temp1229_14)))
(assert (= temp1229_16 #x0000000000000005))
(assert (= temp1229_17 temp1229_16))
(assert (= temp1229_18 (select ARGNAME_w_hh_NAMEEND_DIMSIZE temp1229_17)))
(assert (= temp1229_19 #x0000000000000001))
(assert (= temp1229_20 temp1229_19))
(assert (= temp1229_21 (select ARGNAME_w_hh_NAMEEND_DIMSIZE temp1229_20)))
(assert (bvsgt ARGNAME_w_hh_NAMEEND_DIM temp1229_19))
(assert (bvsge temp1229_19 (bvneg ARGNAME_w_hh_NAMEEND_DIM)))
(assert (= temp1229_22 #x0000000000000000))
(assert (= temp1229_23 temp1229_22))
(assert (= temp1229_24 (select ARGNAME_input_NAMEEND_DIMSIZE temp1229_23)))
(assert (= temp1229_25 #x0000000000000001))
(assert (= temp1229_26 temp1229_25))
(assert (= temp1229_27 (select ARGNAME_input_NAMEEND_DIMSIZE temp1229_26)))
(assert (= temp1229_28 #x0000000000000002))
(assert (= temp1229_29 temp1229_28))
(assert (= temp1229_30 (select ARGNAME_input_NAMEEND_DIMSIZE temp1229_29)))
(assert (= temp1229_31 #x0000000000000003))
(assert (= temp1229_32 temp1229_31))
(assert (= temp1229_33 (select ARGNAME_input_NAMEEND_DIMSIZE temp1229_32)))
(assert (= temp1229_34 #x0000000000000004))
(assert (= temp1229_35 temp1229_34))
(assert (= temp1229_36 (select ARGNAME_input_NAMEEND_DIMSIZE temp1229_35)))
(assert (= temp1229_37 #x0000000000000005))
(assert (= temp1229_38 temp1229_37))
(assert (= temp1229_39 (select ARGNAME_input_NAMEEND_DIMSIZE temp1229_38)))
(assert (= temp1229_40 #x0000000000000001))
(assert (= temp1229_41 temp1229_40))
(assert (= temp1229_42 (select ARGNAME_input_NAMEEND_DIMSIZE temp1229_41)))
(assert (bvsgt ARGNAME_input_NAMEEND_DIM temp1229_40))
(assert (bvsge temp1229_40 (bvneg ARGNAME_input_NAMEEND_DIM)))
(assert (= temp1229_43 temp1229_21))
(assert (= var404256
   (ite (= temp1229_42 temp1229_43) #x0000000000000001 #x0000000000000000)))
(assert (= temp1229_44 #x0000000000000001))
(assert (= var404256 temp1229_44))
(assert (= temp1229_45 #x0000000000000000))
(assert (= temp1229_46 temp1229_45))
(assert (= temp1229_47 (select ARGNAME_b_ih_NAMEEND_DIMSIZE temp1229_46)))
(assert (= temp1229_48 #x0000000000000001))
(assert (= temp1229_49 temp1229_48))
(assert (= temp1229_50 (select ARGNAME_b_ih_NAMEEND_DIMSIZE temp1229_49)))
(assert (= temp1229_51 #x0000000000000002))
(assert (= temp1229_52 temp1229_51))
(assert (= temp1229_53 (select ARGNAME_b_ih_NAMEEND_DIMSIZE temp1229_52)))
(assert (= temp1229_54 #x0000000000000003))
(assert (= temp1229_55 temp1229_54))
(assert (= temp1229_56 (select ARGNAME_b_ih_NAMEEND_DIMSIZE temp1229_55)))
(assert (= temp1229_57 #x0000000000000004))
(assert (= temp1229_58 temp1229_57))
(assert (= temp1229_59 (select ARGNAME_b_ih_NAMEEND_DIMSIZE temp1229_58)))
(assert (= temp1229_60 #x0000000000000005))
(assert (= temp1229_61 temp1229_60))
(assert (= temp1229_62 (select ARGNAME_b_ih_NAMEEND_DIMSIZE temp1229_61)))
(assert (= temp1229_63 #x0000000000000001))
(assert (= temp1229_64 temp1229_63))
(assert (= temp1229_65 (select ARGNAME_b_ih_NAMEEND_DIMSIZE temp1229_64)))
(assert (bvsgt ARGNAME_b_ih_NAMEEND_DIM temp1229_63))
(assert (bvsge temp1229_63 (bvneg ARGNAME_b_ih_NAMEEND_DIM)))
(assert (= temp1229_66 #x0000000000000000))
(assert (= var65706 temp1229_66))
(assert (= temp1229_67 temp1229_65))
(assert (= temp1229_68 #x0000000000000000))
(assert (= temp1229_69 temp1229_68))
(assert (= temp1229_70 (select ARGNAME_input_NAMEEND_DIMSIZE temp1229_69)))
(assert (bvsgt ARGNAME_input_NAMEEND_DIM temp1229_68))
(assert (bvsge temp1229_68 (bvneg ARGNAME_input_NAMEEND_DIM)))
(assert (= temp1229_71 temp1229_67))
(assert (= temp1229_72 #x0000000000000001))
(assert (= var68976 temp1229_72))
(assert (= temp1229_73 temp1229_65))
(assert (= temp1229_74 #x0000000000000000))
(assert (= temp1229_75 temp1229_74))
(assert (= temp1229_76 (select ARGNAME_input_NAMEEND_DIMSIZE temp1229_75)))
(assert (bvsgt ARGNAME_input_NAMEEND_DIM temp1229_74))
(assert (bvsge temp1229_74 (bvneg ARGNAME_input_NAMEEND_DIM)))
(assert (= temp1229_77 temp1229_73))
(assert (= temp1229_78 #x0000000000000000))
(assert (= var65706 temp1229_78))
(assert (= temp1229_79 #x0000000000000001))
(assert (= var68976 temp1229_79))
(assert (= temp1229_80 #x0000000000000000))
(assert (= var2107376 temp1229_80))
(assert (= temp1229_81 #x0000000000000000))
(assert (= var2691454 temp1229_81))
(assert (= var2691422 var2691454))
(assert (= var2559997 var2691422))
(assert (= var2559991 var2559997))
(assert (= var2107424 var2559991))
(assert (= temp1229_82 #x0000000000000000))
(assert (= var2107424 temp1229_82))
(assert (= temp1229_83 #x0000000000000000))
(assert (= var2107376 temp1229_83))
(assert (= temp1229_84 #x0000000000000001))
(assert (= var2821961 temp1229_84))
(assert (= temp1229_85 #x0000000000000004))
(assert (= var3149889 temp1229_85))
(assert (= temp1229_86 #x0000000000000001))
(assert (= var3149890 temp1229_86))
(assert (= temp1229_87 #x0000000000000000))
(assert (= var3215435 temp1229_87))
(assert (= temp1229_88 #x0000000000000001))
(assert (= var3346507 temp1229_88))
(assert (= temp1229_89 #x0000000000000002))
(assert (= var3477579 temp1229_89))
(assert (= temp1229_90 #x0000000000000003))
(assert (= var3608651 temp1229_90))
(assert (= temp1229_91 #x0000000000000001))
(assert (= var3739465 temp1229_91))
(model-add temp1229_1 () (_ BitVec 64) #x0000000000000000)
(model-add temp1229_2 () (_ BitVec 64) #x0000000000000000)
(model-add temp1229_3
           ()
           (_ BitVec 64)
           (select ARGNAME_w_hh_NAMEEND_DIMSIZE #x0000000000000000))
(model-add temp1229_4 () (_ BitVec 64) #x0000000000000001)
(model-add temp1229_5 () (_ BitVec 64) #x0000000000000001)
(model-add temp1229_6
           ()
           (_ BitVec 64)
           (select ARGNAME_w_hh_NAMEEND_DIMSIZE #x0000000000000001))
(model-add temp1229_7 () (_ BitVec 64) #x0000000000000002)
(model-add temp1229_8 () (_ BitVec 64) #x0000000000000002)
(model-add temp1229_9
           ()
           (_ BitVec 64)
           (select ARGNAME_w_hh_NAMEEND_DIMSIZE #x0000000000000002))
(model-add temp1229_10 () (_ BitVec 64) #x0000000000000003)
(model-add temp1229_11 () (_ BitVec 64) #x0000000000000003)
(model-add temp1229_12
           ()
           (_ BitVec 64)
           (select ARGNAME_w_hh_NAMEEND_DIMSIZE #x0000000000000003))
(model-add temp1229_13 () (_ BitVec 64) #x0000000000000004)
(model-add temp1229_14 () (_ BitVec 64) #x0000000000000004)
(model-add temp1229_15
           ()
           (_ BitVec 64)
           (select ARGNAME_w_hh_NAMEEND_DIMSIZE #x0000000000000004))
(model-add temp1229_16 () (_ BitVec 64) #x0000000000000005)
(model-add temp1229_17 () (_ BitVec 64) #x0000000000000005)
(model-add temp1229_18
           ()
           (_ BitVec 64)
           (select ARGNAME_w_hh_NAMEEND_DIMSIZE #x0000000000000005))
(model-add temp1229_19 () (_ BitVec 64) #x0000000000000001)
(model-add temp1229_20 () (_ BitVec 64) #x0000000000000001)
(model-add temp1229_21
           ()
           (_ BitVec 64)
           (select ARGNAME_w_hh_NAMEEND_DIMSIZE #x0000000000000001))
(model-add temp1229_22 () (_ BitVec 64) #x0000000000000000)
(model-add temp1229_23 () (_ BitVec 64) #x0000000000000000)
(model-add temp1229_24
           ()
           (_ BitVec 64)
           (select ARGNAME_input_NAMEEND_DIMSIZE #x0000000000000000))
(model-add temp1229_25 () (_ BitVec 64) #x0000000000000001)
(model-add temp1229_26 () (_ BitVec 64) #x0000000000000001)
(model-add temp1229_27
           ()
           (_ BitVec 64)
           (select ARGNAME_input_NAMEEND_DIMSIZE #x0000000000000001))
(model-add temp1229_28 () (_ BitVec 64) #x0000000000000002)
(model-add temp1229_29 () (_ BitVec 64) #x0000000000000002)
(model-add temp1229_30
           ()
           (_ BitVec 64)
           (select ARGNAME_input_NAMEEND_DIMSIZE #x0000000000000002))
(model-add temp1229_31 () (_ BitVec 64) #x0000000000000003)
(model-add temp1229_32 () (_ BitVec 64) #x0000000000000003)
(model-add temp1229_33
           ()
           (_ BitVec 64)
           (select ARGNAME_input_NAMEEND_DIMSIZE #x0000000000000003))
(model-add temp1229_34 () (_ BitVec 64) #x0000000000000004)
(model-add temp1229_35 () (_ BitVec 64) #x0000000000000004)
(model-add temp1229_36
           ()
           (_ BitVec 64)
           (select ARGNAME_input_NAMEEND_DIMSIZE #x0000000000000004))
(model-add temp1229_37 () (_ BitVec 64) #x0000000000000005)
(model-add temp1229_38 () (_ BitVec 64) #x0000000000000005)
(model-add temp1229_39
           ()
           (_ BitVec 64)
           (select ARGNAME_input_NAMEEND_DIMSIZE #x0000000000000005))
(model-add temp1229_40 () (_ BitVec 64) #x0000000000000001)
(model-add temp1229_41 () (_ BitVec 64) #x0000000000000001)
(model-add temp1229_42
           ()
           (_ BitVec 64)
           (select ARGNAME_input_NAMEEND_DIMSIZE #x0000000000000001))
(model-add temp1229_43
           ()
           (_ BitVec 64)
           (select ARGNAME_w_hh_NAMEEND_DIMSIZE #x0000000000000001))
(model-add temp1229_44 () (_ BitVec 64) #x0000000000000001)
(model-add var404256 () (_ BitVec 64) #x0000000000000001)
(model-del k!0)
(model-add ARGNAME_input_NAMEEND_DIMSIZE
           ()
           (Array (_ BitVec 64) (_ BitVec 64))
           ((as const (Array (_ BitVec 64) (_ BitVec 64))) k!0))
(model-del k!1)
(model-add ARGNAME_w_hh_NAMEEND_DIMSIZE
           ()
           (Array (_ BitVec 64) (_ BitVec 64))
           ((as const (Array (_ BitVec 64) (_ BitVec 64))) k!1))
(model-del k!2)
(model-add k!0 () (_ BitVec 64) (ite k!2 k!1 (bvnot k!1)))






